(set-info :smt-lib-version 2.6)
(set-logic QF_S)
(set-info :source |
Generated by: Hung-En Wang, Tzung-Lin Tsai, Chun-Han Lin, Fang Yu, and Jie-Hong R. Jiang
Generated on: 2019-02-28
Generator: Stranger
Application: Security analysis of string manipulating web applications
Target solver: CVC4, Norn, Z3-str2
Publication:
Hung-En Wang, Tzung-Lin Tsai, Chun-Han Lin, Fang Yu, Jie-Hong R. Jiang:
String Analysis via Automata Manipulation with Logic Circuit Representation. CAV (1) 2016: 241-260.
|)
(set-info :license "https://creativecommons.org/licenses/by/4.0/")
(set-info :category "industrial")
(set-info :status unknown)

(declare-fun sigmaStar_0 () String)
(declare-fun literal_5 () String)
(declare-fun x_4 () String)
(declare-fun literal_2 () String)
(declare-fun literal_3 () String)
(declare-fun x_6 () String)
(declare-fun x_7 () String)
(declare-fun epsilon () String)
(declare-fun x_8 () String)
(declare-fun literal_9 () String)
(declare-fun x_10 () String)
(declare-fun x_11 () String)
(declare-fun x_12 () String)
(declare-fun literal_13 () String)
(declare-fun x_14 () String)
(declare-fun x_15 () String)
(declare-fun literal_16 () String)
(declare-fun x_17 () String)
(assert (= literal_5 "\u{5b}\u{20}\u{3c}\u{61}\u{20}\u{68}\u{72}\u{65}\u{66}\u{3d}\u{27}"))
(assert (= literal_2 "\u{68}\u{74}\u{74}\u{70}\u{3a}\u{2f}\u{2f}"))
(assert (= literal_3 ""))
(assert (or (= x_4 literal_2) (= x_4 literal_3)))
(assert (= x_6 (str.++ literal_5 x_4)))
(assert (= epsilon ""))
(assert (= x_7 epsilon))
(assert (= x_8 (str.++ x_6 x_7)))
(assert (= literal_9 "\u{27}\u{20}\u{74}\u{69}\u{74}\u{6c}\u{65}\u{3d}\u{27}"))
(assert (= x_10 (str.++ x_8 literal_9)))
(assert (= x_11 (str.++ x_10 x_4)))
(assert (= x_12 (str.++ x_11 x_7)))
(assert (= literal_13 "\u{27}\u{20}\u{74}\u{61}\u{72}\u{67}\u{65}\u{74}\u{3d}\u{27}\u{5f}\u{62}\u{6c}\u{61}\u{6e}\u{6b}\u{27}\u{3e}"))
(assert (= x_14 (str.++ x_12 literal_13)))
(assert (= x_15 (str.++ x_14 sigmaStar_0)))
(assert (= literal_16 "\u{3c}\u{2f}\u{61}\u{3e}\u{20}\u{5d}\u{5c}\u{6e}"))
(assert (= x_17 (str.++ x_15 literal_16)))
(assert (str.in_re x_17 (re.++ (re.* re.allchar) (re.++ (str.to_re "\u{5c}\u{3c}\u{53}\u{43}\u{52}\u{49}\u{50}\u{54}") (re.* re.allchar)))))
(check-sat)
(exit)
